p cnf 39 38
-152 0
-154 0
-157 0
-11 -159 0
-158 -159 0
-162 0
-164 0
-165 0
-166 0
-167 0
-168 0
-169 0
-170 0
-171 0
-172 0
-173 0
-174 0
-175 0
-159 -176 0
-177 0
-178 0
-179 0
-180 0
-181 0
-182 0
-185 0
-187 0
-190 0
-193 0
-194 0
-197 0
-198 0
-200 0
-201 0
-202 0
-203 0
-204 0
-207 0
